(set-info :smt-lib-version 2.6)
(set-logic UF)
(set-info :source |Benchmarks from the paper: "Extending Sledgehammer with SMT Solvers" by Jasmin Blanchette, Sascha Bohme, and Lawrence C. Paulson, CADE 2011.  Translated to SMT2 by Andrew Reynolds and Morgan Deters.|)
(set-info :category "industrial")
(set-info :status sat)
(declare-sort S1 0)
(declare-sort S2 0)
(declare-sort S3 0)
(declare-sort S4 0)
(declare-sort S5 0)
(declare-sort S6 0)
(declare-sort S7 0)
(declare-sort S8 0)
(declare-sort S9 0)
(declare-sort S10 0)
(declare-sort S11 0)
(declare-sort S12 0)
(declare-sort S13 0)
(declare-sort S14 0)
(declare-sort S15 0)
(declare-sort S16 0)
(declare-sort S17 0)
(declare-sort S18 0)
(declare-sort S19 0)
(declare-sort S20 0)
(declare-sort S21 0)
(declare-sort S22 0)
(declare-sort S23 0)
(declare-sort S24 0)
(declare-sort S25 0)
(declare-sort S26 0)
(declare-sort S27 0)
(declare-sort S28 0)
(declare-sort S29 0)
(declare-sort S30 0)
(declare-sort S31 0)
(declare-sort S32 0)
(declare-sort S33 0)
(declare-sort S34 0)
(declare-sort S35 0)
(declare-fun f1 () S1)
(declare-fun f2 () S1)
(declare-fun f3 (S3 S2) S4)
(declare-fun f4 () S3)
(declare-fun f5 (S5 S6) S4)
(declare-fun f6 () S5)
(declare-fun f7 (S7) S6)
(declare-fun f8 (S8 S2) S7)
(declare-fun f9 () S8)
(declare-fun f10 () S3)
(declare-fun f11 (S2) S6)
(declare-fun f12 (S10 S9) S1)
(declare-fun f13 (S9) S10)
(declare-fun f14 (S9) S10)
(declare-fun f15 (S12 S11) S1)
(declare-fun f16 (S11) S12)
(declare-fun f17 (S11) S12)
(declare-fun f18 (S13 S10) S1)
(declare-fun f19 (S10) S13)
(declare-fun f20 (S10) S13)
(declare-fun f21 (S14 S12) S1)
(declare-fun f22 (S12) S14)
(declare-fun f23 (S12 S12) S1)
(declare-fun f24 (S15 S13) S1)
(declare-fun f25 (S13) S15)
(declare-fun f26 (S13 S13) S1)
(declare-fun f27 (S9 S4) S1)
(declare-fun f28 (S16 S9) S9)
(declare-fun f29 (S9) S16)
(declare-fun f30 (S11 S2) S1)
(declare-fun f31 (S17 S11) S11)
(declare-fun f32 (S11) S17)
(declare-fun f33 (S18 S10) S10)
(declare-fun f34 (S10) S18)
(declare-fun f35 (S19 S12) S12)
(declare-fun f36 (S12) S19)
(declare-fun f37 (S20 S13) S13)
(declare-fun f38 (S13) S20)
(declare-fun f39 () S9)
(declare-fun f40 (S21 S11) S9)
(declare-fun f41 (S3) S21)
(declare-fun f42 (S8) S11)
(declare-fun f43 (S9) S10)
(declare-fun f44 (S9) S1)
(declare-fun f45 () S1)
(declare-fun f46 () S1)
(declare-fun f47 (S10) S1)
(declare-fun f48 (S10) S10)
(declare-fun f49 (S12) S1)
(declare-fun f50 (S14) S1)
(declare-fun f51 (S14) S14)
(declare-fun f52 (S13) S1)
(declare-fun f53 (S15) S1)
(declare-fun f54 (S15) S15)
(declare-fun f55 (S13) S13)
(declare-fun f56 (S11) S1)
(declare-fun f57 (S12) S12)
(declare-fun f58 (S23 S12) S9)
(declare-fun f59 (S22) S23)
(declare-fun f60 (S25 S13) S9)
(declare-fun f61 (S24) S25)
(declare-fun f62 (S27 S10) S9)
(declare-fun f63 (S26) S27)
(declare-fun f64 (S29 S9) S12)
(declare-fun f65 (S28) S29)
(declare-fun f66 (S31 S9) S13)
(declare-fun f67 (S30) S31)
(declare-fun f68 (S33 S9) S10)
(declare-fun f69 (S32) S33)
(declare-fun f70 (S35 S9) S11)
(declare-fun f71 (S34) S35)
(declare-fun f72 (S9) S9)
(declare-fun f73 (S11) S11)
(declare-fun f74 (S2) S12)
(declare-fun f75 (S4) S10)
(declare-fun f76 (S26 S9) S4)
(declare-fun f77 (S9) S13)
(declare-fun f78 (S32 S4) S9)
(declare-fun f79 (S34 S4) S2)
(assert (not (= f1 f2)))
(assert (forall ((?v0 S2)) (= (f3 f4 ?v0) (f5 f6 (f7 (f8 f9 ?v0))))))
(assert (forall ((?v0 S2)) (= (f3 f10 ?v0) (f5 f6 (f11 ?v0)))))
(assert (forall ((?v0 S9) (?v1 S9)) (= (= (f12 (f13 ?v0) ?v1) f1) (= (f12 (f14 ?v1) ?v0) f1))))
(assert (forall ((?v0 S11) (?v1 S11)) (= (= (f15 (f16 ?v0) ?v1) f1) (= (f15 (f17 ?v1) ?v0) f1))))
(assert (forall ((?v0 S10) (?v1 S10)) (= (= (f18 (f19 ?v0) ?v1) f1) (= (f18 (f20 ?v1) ?v0) f1))))
(assert (forall ((?v0 S12) (?v1 S12)) (= (= (f21 (f22 ?v0) ?v1) f1) (= (f23 ?v1 ?v0) f1))))
(assert (forall ((?v0 S13) (?v1 S13)) (= (= (f24 (f25 ?v0) ?v1) f1) (= (f26 ?v1 ?v0) f1))))
(assert (forall ((?v0 S9) (?v1 S9) (?v2 S4)) (= (= (f27 (f28 (f29 ?v0) ?v1) ?v2) f1) (and (= (f27 ?v0 ?v2) f1) (= (f27 ?v1 ?v2) f1)))))
(assert (forall ((?v0 S11) (?v1 S11) (?v2 S2)) (= (= (f30 (f31 (f32 ?v0) ?v1) ?v2) f1) (and (= (f30 ?v0 ?v2) f1) (= (f30 ?v1 ?v2) f1)))))
(assert (forall ((?v0 S10) (?v1 S10) (?v2 S9)) (= (= (f12 (f33 (f34 ?v0) ?v1) ?v2) f1) (and (= (f12 ?v0 ?v2) f1) (= (f12 ?v1 ?v2) f1)))))
(assert (forall ((?v0 S12) (?v1 S12) (?v2 S11)) (= (= (f15 (f35 (f36 ?v0) ?v1) ?v2) f1) (and (= (f15 ?v0 ?v2) f1) (= (f15 ?v1 ?v2) f1)))))
(assert (forall ((?v0 S13) (?v1 S13) (?v2 S10)) (= (= (f18 (f37 (f38 ?v0) ?v1) ?v2) f1) (and (= (f18 ?v0 ?v2) f1) (= (f18 ?v1 ?v2) f1)))))
(assert (let ((?v_0 (f42 f9))) (not (=> (= (f12 (f14 f39) (f40 (f41 f4) ?v_0)) f1) (= (f12 (f43 (f40 (f41 f10) ?v_0)) f39) f1)))))
(assert (= (f44 f39) f1))
(assert (= f45 f1))
(assert (= f46 f1))
(assert (forall ((?v0 S9) (?v1 S9)) (=> (= (f12 (f14 ?v0) ?v1) f1) (= (f12 (f43 ?v1) ?v0) f1))))
(assert (forall ((?v0 S9) (?v1 S9) (?v2 S9)) (let ((?v_0 (f43 ?v0))) (=> (= (f12 ?v_0 ?v1) f1) (=> (= (f12 (f14 ?v2) ?v1) f1) (= (f12 ?v_0 ?v2) f1))))))
(assert (forall ((?v0 S9) (?v1 S9) (?v2 S9)) (=> (= (f12 (f43 ?v0) ?v1) f1) (=> (= (f12 (f14 ?v0) ?v2) f1) (= (f12 (f43 ?v2) ?v1) f1)))))
(assert (forall ((?v0 S9) (?v1 S9) (?v2 S9)) (let ((?v_0 (f43 ?v2))) (=> (= (f12 (f43 ?v0) ?v1) f1) (=> (= (f12 ?v_0 ?v0) f1) (= (f12 ?v_0 ?v1) f1))))))
(assert (forall ((?v0 S9)) (=> (= (f44 ?v0) f1) (= (f47 (f48 (f13 ?v0))) f1))))
(assert (forall ((?v0 S12)) (=> (= (f49 ?v0) f1) (= (f50 (f51 (f22 ?v0))) f1))))
(assert (forall ((?v0 S13)) (=> (= (f52 ?v0) f1) (= (f53 (f54 (f25 ?v0))) f1))))
(assert (forall ((?v0 S10)) (=> (= (f47 ?v0) f1) (= (f52 (f55 (f19 ?v0))) f1))))
(assert (forall ((?v0 S11)) (=> (= (f56 ?v0) f1) (= (f49 (f57 (f16 ?v0))) f1))))
(assert (forall ((?v0 S11) (?v1 S3)) (=> (= (f56 ?v0) f1) (= (f44 (f40 (f41 ?v1) ?v0)) f1))))
(assert (forall ((?v0 S12) (?v1 S22)) (=> (= (f49 ?v0) f1) (= (f44 (f58 (f59 ?v1) ?v0)) f1))))
(assert (forall ((?v0 S13) (?v1 S24)) (=> (= (f52 ?v0) f1) (= (f44 (f60 (f61 ?v1) ?v0)) f1))))
(assert (forall ((?v0 S10) (?v1 S26)) (=> (= (f47 ?v0) f1) (= (f44 (f62 (f63 ?v1) ?v0)) f1))))
(assert (forall ((?v0 S9) (?v1 S28)) (=> (= (f44 ?v0) f1) (= (f49 (f64 (f65 ?v1) ?v0)) f1))))
(assert (forall ((?v0 S9) (?v1 S30)) (=> (= (f44 ?v0) f1) (= (f52 (f66 (f67 ?v1) ?v0)) f1))))
(assert (forall ((?v0 S9) (?v1 S32)) (=> (= (f44 ?v0) f1) (= (f47 (f68 (f69 ?v1) ?v0)) f1))))
(assert (forall ((?v0 S9) (?v1 S34)) (=> (= (f44 ?v0) f1) (= (f56 (f70 (f71 ?v1) ?v0)) f1))))
(assert (forall ((?v0 S9) (?v1 S9)) (=> (or (= (f44 (f72 ?v0)) f1) (= (f44 (f72 ?v1)) f1)) (= (f44 (f72 (f28 (f29 ?v0) ?v1))) f1))))
(assert (forall ((?v0 S12) (?v1 S12)) (=> (or (= (f49 (f57 ?v0)) f1) (= (f49 (f57 ?v1)) f1)) (= (f49 (f57 (f35 (f36 ?v0) ?v1))) f1))))
(assert (forall ((?v0 S13) (?v1 S13)) (=> (or (= (f52 (f55 ?v0)) f1) (= (f52 (f55 ?v1)) f1)) (= (f52 (f55 (f37 (f38 ?v0) ?v1))) f1))))
(assert (forall ((?v0 S11) (?v1 S11)) (=> (or (= (f56 (f73 ?v0)) f1) (= (f56 (f73 ?v1)) f1)) (= (f56 (f73 (f31 (f32 ?v0) ?v1))) f1))))
(assert (forall ((?v0 S10) (?v1 S10)) (=> (or (= (f47 (f48 ?v0)) f1) (= (f47 (f48 ?v1)) f1)) (= (f47 (f48 (f33 (f34 ?v0) ?v1))) f1))))
(assert (forall ((?v0 S11) (?v1 S9) (?v2 S3)) (=> (= (f56 ?v0) f1) (=> (= (f12 (f14 ?v1) (f40 (f41 ?v2) ?v0)) f1) (= (f44 ?v1) f1)))))
(assert (forall ((?v0 S12) (?v1 S9) (?v2 S22)) (=> (= (f49 ?v0) f1) (=> (= (f12 (f14 ?v1) (f58 (f59 ?v2) ?v0)) f1) (= (f44 ?v1) f1)))))
(assert (forall ((?v0 S13) (?v1 S9) (?v2 S24)) (=> (= (f52 ?v0) f1) (=> (= (f12 (f14 ?v1) (f60 (f61 ?v2) ?v0)) f1) (= (f44 ?v1) f1)))))
(assert (forall ((?v0 S10) (?v1 S9) (?v2 S26)) (=> (= (f47 ?v0) f1) (=> (= (f12 (f14 ?v1) (f62 (f63 ?v2) ?v0)) f1) (= (f44 ?v1) f1)))))
(assert (forall ((?v0 S9) (?v1 S12) (?v2 S28)) (=> (= (f44 ?v0) f1) (=> (= (f23 ?v1 (f64 (f65 ?v2) ?v0)) f1) (= (f49 ?v1) f1)))))
(assert (forall ((?v0 S9) (?v1 S13) (?v2 S30)) (=> (= (f44 ?v0) f1) (=> (= (f26 ?v1 (f66 (f67 ?v2) ?v0)) f1) (= (f52 ?v1) f1)))))
(assert (forall ((?v0 S9) (?v1 S10) (?v2 S32)) (=> (= (f44 ?v0) f1) (=> (= (f18 (f20 ?v1) (f68 (f69 ?v2) ?v0)) f1) (= (f47 ?v1) f1)))))
(assert (forall ((?v0 S9) (?v1 S11) (?v2 S34)) (=> (= (f44 ?v0) f1) (=> (= (f15 (f17 ?v1) (f70 (f71 ?v2) ?v0)) f1) (= (f56 ?v1) f1)))))
(assert (forall ((?v0 S4) (?v1 S3) (?v2 S2) (?v3 S11)) (=> (= ?v0 (f3 ?v1 ?v2)) (=> (= (f15 (f74 ?v2) ?v3) f1) (= (f12 (f75 ?v0) (f40 (f41 ?v1) ?v3)) f1)))))
(assert (forall ((?v0 S4) (?v1 S26) (?v2 S9) (?v3 S10)) (=> (= ?v0 (f76 ?v1 ?v2)) (=> (= (f18 (f77 ?v2) ?v3) f1) (= (f12 (f75 ?v0) (f62 (f63 ?v1) ?v3)) f1)))))
(assert (forall ((?v0 S9) (?v1 S32) (?v2 S4) (?v3 S9)) (=> (= ?v0 (f78 ?v1 ?v2)) (=> (= (f12 (f75 ?v2) ?v3) f1) (= (f18 (f77 ?v0) (f68 (f69 ?v1) ?v3)) f1)))))
(assert (forall ((?v0 S2) (?v1 S34) (?v2 S4) (?v3 S9)) (=> (= ?v0 (f79 ?v1 ?v2)) (=> (= (f12 (f75 ?v2) ?v3) f1) (= (f15 (f74 ?v0) (f70 (f71 ?v1) ?v3)) f1)))))
(assert (forall ((?v0 S9) (?v1 S9) (?v2 S4)) (let ((?v_0 (f75 ?v2))) (=> (= (f12 (f14 ?v0) ?v1) f1) (=> (= (f12 ?v_0 ?v0) f1) (= (f12 ?v_0 ?v1) f1))))))
(assert (forall ((?v0 S10) (?v1 S10) (?v2 S9)) (let ((?v_0 (f77 ?v2))) (=> (= (f18 (f20 ?v0) ?v1) f1) (=> (= (f18 ?v_0 ?v0) f1) (= (f18 ?v_0 ?v1) f1))))))
(assert (forall ((?v0 S11) (?v1 S11) (?v2 S2)) (let ((?v_0 (f74 ?v2))) (=> (= (f15 (f17 ?v0) ?v1) f1) (=> (= (f15 ?v_0 ?v0) f1) (= (f15 ?v_0 ?v1) f1))))))
(assert (forall ((?v0 S9) (?v1 S9)) (=> (= (f12 (f14 ?v0) ?v1) f1) (=> (= (f12 (f14 ?v1) ?v0) f1) (= ?v0 ?v1)))))
(assert (forall ((?v0 S10) (?v1 S10)) (=> (= (f18 (f20 ?v0) ?v1) f1) (=> (= (f18 (f20 ?v1) ?v0) f1) (= ?v0 ?v1)))))
(assert (forall ((?v0 S11) (?v1 S11)) (=> (= (f15 (f17 ?v0) ?v1) f1) (=> (= (f15 (f17 ?v1) ?v0) f1) (= ?v0 ?v1)))))
(assert (forall ((?v0 S9)) (= (f12 (f14 ?v0) ?v0) f1)))
(assert (forall ((?v0 S10)) (= (f18 (f20 ?v0) ?v0) f1)))
(assert (forall ((?v0 S11)) (= (f15 (f17 ?v0) ?v0) f1)))
(assert (forall ((?v0 S9) (?v1 S3) (?v2 S11)) (= (= (f12 (f14 ?v0) (f40 (f41 ?v1) ?v2)) f1) (exists ((?v3 S11)) (and (= (f15 (f17 ?v3) ?v2) f1) (= ?v0 (f40 (f41 ?v1) ?v3)))))))
(assert (forall ((?v0 S11) (?v1 S34) (?v2 S9)) (= (= (f15 (f17 ?v0) (f70 (f71 ?v1) ?v2)) f1) (exists ((?v3 S9)) (and (= (f12 (f14 ?v3) ?v2) f1) (= ?v0 (f70 (f71 ?v1) ?v3)))))))
(assert (forall ((?v0 S10) (?v1 S32) (?v2 S9)) (= (= (f18 (f20 ?v0) (f68 (f69 ?v1) ?v2)) f1) (exists ((?v3 S9)) (and (= (f12 (f14 ?v3) ?v2) f1) (= ?v0 (f68 (f69 ?v1) ?v3)))))))
(assert (forall ((?v0 S9) (?v1 S26) (?v2 S10)) (= (= (f12 (f14 ?v0) (f62 (f63 ?v1) ?v2)) f1) (exists ((?v3 S10)) (and (= (f18 (f20 ?v3) ?v2) f1) (= ?v0 (f62 (f63 ?v1) ?v3)))))))
(assert (forall ((?v0 S11) (?v1 S11) (?v2 S3)) (let ((?v_0 (f41 ?v2))) (=> (= (f15 (f17 ?v0) ?v1) f1) (= (f12 (f14 (f40 ?v_0 ?v0)) (f40 ?v_0 ?v1)) f1)))))
(assert (forall ((?v0 S9) (?v1 S9) (?v2 S34)) (let ((?v_0 (f71 ?v2))) (=> (= (f12 (f14 ?v0) ?v1) f1) (= (f15 (f17 (f70 ?v_0 ?v0)) (f70 ?v_0 ?v1)) f1)))))
(assert (forall ((?v0 S9) (?v1 S9) (?v2 S32)) (let ((?v_0 (f69 ?v2))) (=> (= (f12 (f14 ?v0) ?v1) f1) (= (f18 (f20 (f68 ?v_0 ?v0)) (f68 ?v_0 ?v1)) f1)))))
(assert (forall ((?v0 S10) (?v1 S10) (?v2 S26)) (let ((?v_0 (f63 ?v2))) (=> (= (f18 (f20 ?v0) ?v1) f1) (= (f12 (f14 (f62 ?v_0 ?v0)) (f62 ?v_0 ?v1)) f1)))))
(assert (forall ((?v0 S9) (?v1 S9)) (=> (= (f44 ?v0) f1) (=> (= (f12 (f14 ?v1) ?v0) f1) (= (f44 ?v1) f1)))))
(assert (forall ((?v0 S12) (?v1 S12)) (=> (= (f49 ?v0) f1) (=> (= (f23 ?v1 ?v0) f1) (= (f49 ?v1) f1)))))
(assert (forall ((?v0 S13) (?v1 S13)) (=> (= (f52 ?v0) f1) (=> (= (f26 ?v1 ?v0) f1) (= (f52 ?v1) f1)))))
(assert (forall ((?v0 S10) (?v1 S10)) (=> (= (f47 ?v0) f1) (=> (= (f18 (f20 ?v1) ?v0) f1) (= (f47 ?v1) f1)))))
(assert (forall ((?v0 S11) (?v1 S11)) (=> (= (f56 ?v0) f1) (=> (= (f15 (f17 ?v1) ?v0) f1) (= (f56 ?v1) f1)))))
(assert (forall ((?v0 S9) (?v1 S9)) (=> (= (f12 (f14 ?v0) ?v1) f1) (=> (= (f44 ?v1) f1) (= (f44 ?v0) f1)))))
(assert (forall ((?v0 S12) (?v1 S12)) (=> (= (f23 ?v0 ?v1) f1) (=> (= (f49 ?v1) f1) (= (f49 ?v0) f1)))))
(assert (forall ((?v0 S13) (?v1 S13)) (=> (= (f26 ?v0 ?v1) f1) (=> (= (f52 ?v1) f1) (= (f52 ?v0) f1)))))
(assert (forall ((?v0 S10) (?v1 S10)) (=> (= (f18 (f20 ?v0) ?v1) f1) (=> (= (f47 ?v1) f1) (= (f47 ?v0) f1)))))
(assert (forall ((?v0 S11) (?v1 S11)) (=> (= (f15 (f17 ?v0) ?v1) f1) (=> (= (f56 ?v1) f1) (= (f56 ?v0) f1)))))
(assert (forall ((?v0 S9) (?v1 S9) (?v2 S9)) (let ((?v_0 (f14 ?v2))) (=> (= (f12 (f14 ?v0) ?v1) f1) (=> (= (f12 ?v_0 ?v0) f1) (= (f12 ?v_0 ?v1) f1))))))
(assert (forall ((?v0 S10) (?v1 S10) (?v2 S10)) (let ((?v_0 (f20 ?v2))) (=> (= (f18 (f20 ?v0) ?v1) f1) (=> (= (f18 ?v_0 ?v0) f1) (= (f18 ?v_0 ?v1) f1))))))
(assert (forall ((?v0 S11) (?v1 S11) (?v2 S11)) (let ((?v_0 (f17 ?v2))) (=> (= (f15 (f17 ?v0) ?v1) f1) (=> (= (f15 ?v_0 ?v0) f1) (= (f15 ?v_0 ?v1) f1))))))
(assert (forall ((?v0 S9) (?v1 S9)) (=> (= (f12 (f14 ?v0) ?v1) f1) (=> (= (f12 (f14 ?v1) ?v0) f1) (= ?v1 ?v0)))))
(assert (forall ((?v0 S10) (?v1 S10)) (=> (= (f18 (f20 ?v0) ?v1) f1) (=> (= (f18 (f20 ?v1) ?v0) f1) (= ?v1 ?v0)))))
(assert (forall ((?v0 S11) (?v1 S11)) (=> (= (f15 (f17 ?v0) ?v1) f1) (=> (= (f15 (f17 ?v1) ?v0) f1) (= ?v1 ?v0)))))
(assert (forall ((?v0 S9) (?v1 S9) (?v2 S9)) (let ((?v_0 (f14 ?v0))) (=> (= (f12 ?v_0 ?v1) f1) (=> (= (f12 (f14 ?v1) ?v2) f1) (= (f12 ?v_0 ?v2) f1))))))
(assert (forall ((?v0 S10) (?v1 S10) (?v2 S10)) (let ((?v_0 (f20 ?v0))) (=> (= (f18 ?v_0 ?v1) f1) (=> (= (f18 (f20 ?v1) ?v2) f1) (= (f18 ?v_0 ?v2) f1))))))
(assert (forall ((?v0 S11) (?v1 S11) (?v2 S11)) (let ((?v_0 (f17 ?v0))) (=> (= (f15 ?v_0 ?v1) f1) (=> (= (f15 (f17 ?v1) ?v2) f1) (= (f15 ?v_0 ?v2) f1))))))
(assert (forall ((?v0 S9) (?v1 S9)) (=> (= (f12 (f14 ?v0) ?v1) f1) (=> (= (f12 (f14 ?v1) ?v0) f1) (= ?v0 ?v1)))))
(assert (forall ((?v0 S10) (?v1 S10)) (=> (= (f18 (f20 ?v0) ?v1) f1) (=> (= (f18 (f20 ?v1) ?v0) f1) (= ?v0 ?v1)))))
(assert (forall ((?v0 S11) (?v1 S11)) (=> (= (f15 (f17 ?v0) ?v1) f1) (=> (= (f15 (f17 ?v1) ?v0) f1) (= ?v0 ?v1)))))
(assert (forall ((?v0 S9) (?v1 S9) (?v2 S9)) (=> (= (f12 (f14 ?v0) ?v1) f1) (=> (= ?v0 ?v2) (= (f12 (f14 ?v2) ?v1) f1)))))
(assert (forall ((?v0 S10) (?v1 S10) (?v2 S10)) (=> (= (f18 (f20 ?v0) ?v1) f1) (=> (= ?v0 ?v2) (= (f18 (f20 ?v2) ?v1) f1)))))
(assert (forall ((?v0 S11) (?v1 S11) (?v2 S11)) (=> (= (f15 (f17 ?v0) ?v1) f1) (=> (= ?v0 ?v2) (= (f15 (f17 ?v2) ?v1) f1)))))
(assert (forall ((?v0 S9) (?v1 S9) (?v2 S9)) (let ((?v_0 (f14 ?v0))) (=> (= (f12 ?v_0 ?v1) f1) (=> (= ?v1 ?v2) (= (f12 ?v_0 ?v2) f1))))))
(assert (forall ((?v0 S10) (?v1 S10) (?v2 S10)) (let ((?v_0 (f20 ?v0))) (=> (= (f18 ?v_0 ?v1) f1) (=> (= ?v1 ?v2) (= (f18 ?v_0 ?v2) f1))))))
(assert (forall ((?v0 S11) (?v1 S11) (?v2 S11)) (let ((?v_0 (f17 ?v0))) (=> (= (f15 ?v_0 ?v1) f1) (=> (= ?v1 ?v2) (= (f15 ?v_0 ?v2) f1))))))
(assert (forall ((?v0 S9) (?v1 S9) (?v2 S9)) (let ((?v_0 (f14 ?v2))) (=> (= ?v0 ?v1) (=> (= (f12 ?v_0 ?v1) f1) (= (f12 ?v_0 ?v0) f1))))))
(assert (forall ((?v0 S10) (?v1 S10) (?v2 S10)) (let ((?v_0 (f20 ?v2))) (=> (= ?v0 ?v1) (=> (= (f18 ?v_0 ?v1) f1) (= (f18 ?v_0 ?v0) f1))))))
(assert (forall ((?v0 S11) (?v1 S11) (?v2 S11)) (let ((?v_0 (f17 ?v2))) (=> (= ?v0 ?v1) (=> (= (f15 ?v_0 ?v1) f1) (= (f15 ?v_0 ?v0) f1))))))
(assert (forall ((?v0 S9) (?v1 S9) (?v2 S9)) (=> (= ?v0 ?v1) (=> (= (f12 (f14 ?v1) ?v2) f1) (= (f12 (f14 ?v0) ?v2) f1)))))
(assert (forall ((?v0 S10) (?v1 S10) (?v2 S10)) (=> (= ?v0 ?v1) (=> (= (f18 (f20 ?v1) ?v2) f1) (= (f18 (f20 ?v0) ?v2) f1)))))
(assert (forall ((?v0 S11) (?v1 S11) (?v2 S11)) (=> (= ?v0 ?v1) (=> (= (f15 (f17 ?v1) ?v2) f1) (= (f15 (f17 ?v0) ?v2) f1)))))
(assert (forall ((?v0 S9) (?v1 S9)) (=> (= (f12 (f14 ?v0) ?v1) f1) (= (= (f12 (f14 ?v1) ?v0) f1) (= ?v1 ?v0)))))
(assert (forall ((?v0 S10) (?v1 S10)) (=> (= (f18 (f20 ?v0) ?v1) f1) (= (= (f18 (f20 ?v1) ?v0) f1) (= ?v1 ?v0)))))
(assert (forall ((?v0 S11) (?v1 S11)) (=> (= (f15 (f17 ?v0) ?v1) f1) (= (= (f15 (f17 ?v1) ?v0) f1) (= ?v1 ?v0)))))
(assert (forall ((?v0 S9) (?v1 S9)) (=> (= ?v0 ?v1) (= (f12 (f14 ?v0) ?v1) f1))))
(assert (forall ((?v0 S10) (?v1 S10)) (=> (= ?v0 ?v1) (= (f18 (f20 ?v0) ?v1) f1))))
(assert (forall ((?v0 S11) (?v1 S11)) (=> (= ?v0 ?v1) (= (f15 (f17 ?v0) ?v1) f1))))
(assert (forall ((?v0 S9) (?v1 S9)) (= (= ?v0 ?v1) (and (= (f12 (f14 ?v0) ?v1) f1) (= (f12 (f14 ?v1) ?v0) f1)))))
(assert (forall ((?v0 S10) (?v1 S10)) (= (= ?v0 ?v1) (and (= (f18 (f20 ?v0) ?v1) f1) (= (f18 (f20 ?v1) ?v0) f1)))))
(assert (forall ((?v0 S11) (?v1 S11)) (= (= ?v0 ?v1) (and (= (f15 (f17 ?v0) ?v1) f1) (= (f15 (f17 ?v1) ?v0) f1)))))
(assert (forall ((?v0 S9) (?v1 S9)) (=> (= ?v0 ?v1) (=> (=> (= (f12 (f14 ?v0) ?v1) f1) (=> (= (f12 (f14 ?v1) ?v0) f1) false)) false))))
(assert (forall ((?v0 S10) (?v1 S10)) (=> (= ?v0 ?v1) (=> (=> (= (f18 (f20 ?v0) ?v1) f1) (=> (= (f18 (f20 ?v1) ?v0) f1) false)) false))))
(assert (forall ((?v0 S11) (?v1 S11)) (=> (= ?v0 ?v1) (=> (=> (= (f15 (f17 ?v0) ?v1) f1) (=> (= (f15 (f17 ?v1) ?v0) f1) false)) false))))
(check-sat)
(exit)
